g3 1 1 0	# problem r161
 2 0 14 0 0 	# vars, constraints, objectives, ranges, eqns
 0 13 0 0 0 0	# nonlinear constrs, objs; ccons: lin, nonlin, nd, nzlb
 0 0	# network constraints: nonlinear, linear
 0 2 0 	# nonlinear vars in constraints, objectives, both
 0 0 0 1	# linear network variables; functions; arith, flags
 0 0 0 0 0 	# discrete variables: binary, integer, nonlinear (b,c,o)
 0 20 	# nonzeros in Jacobian, obj. gradient
 0 0	# max name lengths: constraints, variables
 0 0 0 0 0	# common exprs: b,c,o,c1,o1
O0 0
o0
o54
5
o43
v0
o2
n3
o43
v1
o2
n2.059
o43
o0
o16
o44
o2
n-1.11925383077948
v1
n1
o2
n9.253
o43
o0
o16
o44
o2
n-4.125249833444371
v1
n1
o2
n6.088
o43
o0
o16
o44
o2
n-10.34510326449034
v1
n1
n-6.918657819434249
O1 0
o5
v0
n-1.0
O2 0
o16
o5
v0
n-2.0
O3 0
o0
o54
4
o2
n3.0
o5
v1
n-1.0
o2
o2
n2.3045436375749495
o5
o0
o16
o44
o2
n-1.11925383077948
v1
n1.0
n-1.0
o44
o2
n-1.11925383077948
v1
o2
o2
n38.17093670886076
o5
o0
o16
o44
o2
n-4.125249833444371
v1
n1.0
n-1.0
o44
o2
n-4.125249833444371
v1
o2
o2
n62.980988674217194
o5
o0
o16
o44
o2
n-10.34510326449034
v1
n1.0
n-1.0
o44
o2
n-10.34510326449034
v1
n5.478795457582861
O4 0
o54
7
o2
n-3.0
o5
v1
n-2.0
o2
o2
n-2.5793692945542395
o5
o0
o16
o44
o2
n-1.11925383077948
v1
n1.0
n-1.0
o44
o2
n-1.11925383077948
v1
o2
o2
n-2.5793692945542395
o5
o0
o16
o44
o2
n-1.11925383077948
v1
n1.0
n-2.0
o44
o2
n-2.23850766155896
v1
o2
o2
n-157.46465030064346
o5
o0
o16
o44
o2
n-4.125249833444371
v1
n1.0
n-1.0
o44
o2
n-4.125249833444371
v1
o2
o2
n-157.46465030064346
o5
o0
o16
o44
o2
n-4.125249833444371
v1
n1.0
n-2.0
o44
o2
n-8.250499666888741
v1
o2
o2
n-651.5448315344735
o5
o0
o16
o44
o2
n-10.34510326449034
v1
n1.0
n-1.0
o44
o2
n-10.34510326449034
v1
o2
o2
n-651.5448315344735
o5
o0
o16
o44
o2
n-10.34510326449034
v1
n1.0
n-2.0
o44
o2
n-20.69020652898068
v1
O5 0
o54
15
o2
o2
n1.511
v0
o5
v1
n0.37
o2
o2
n-2.3
v0
o5
v1
n0.97
o2
o2
n-0.457
o5
v0
n2
o5
v1
n1.14
o2
o2
n0.1683
o5
v0
n3
o5
v1
n0.744
o2
o2
n0.04133
o5
v0
n4
v1
o2
o2
o2
n0.62187
o5
v0
n2
o5
v1
n1.26
o44
o2
n-1.0
v0
o2
o2
o2
n-0.0265
o5
v0
n7
v1
o44
o2
n-1.0
v0
o2
o2
o2
n-1.03
v0
o5
v1
n1.8
o44
o16
o5
v0
n2
o2
o2
o2
n-0.285
o5
v0
n2
o5
v1
n3
o44
o16
o5
v0
n2
o2
o2
o2
n-0.476
o5
v0
n3
o5
v1
n2.25
o44
o16
o5
v0
n2
o2
o2
o2
n0.82
v0
v1
o44
o0
o2
n-0.96
o5
o0
v0
n-0.683
n2
o2
n-2.7
o5
o0
v1
n-0.9
n2
o2
o2
o2
n-0.3532
v0
o5
v1
n1.2
o44
o0
o2
n-1.35
o5
o0
v0
n-0.892
n2
o2
n-5.2
o5
o0
v1
n-0.69
n2
o2
o2
o2
n-0.116
o5
v0
n3
o5
v1
n5.3
o44
o0
o2
n-1.26
o5
o0
v0
n-0.785
n2
o2
n-3.9
o5
o0
v1
n-0.67
n2
o2
o2
o2
n-0.0220583
o5
v0
n3
v1
o44
o0
o2
n-1.23
o5
o0
v0
n-1.33
n2
o2
n-4.7
o5
o0
v1
n-0.67
n2
o2
o2
o2
n-1.63148
o5
v0
n3
o5
v1
n4
o44
o0
o2
n-16.8
o5
o0
v0
n-0.86
n2
o2
n-413
o5
o0
v1
n-1.15
n2
O6 0
o54
25
o2
n1.511
o5
v1
n0.37
o2
n-2.3
o5
v1
n0.97
o2
o2
n0.5049
o5
v0
n2.0
o5
v1
n0.744
o2
o2
n0.16532
v1
o5
v0
n3.0
o2
o2
n0.82
v1
o44
o0
o2
n-0.96
o5
o0
v0
n-0.683
n2.0
o2
n-2.7
o5
o0
v1
n-0.9
n2.0
o2
o2
n-1.03
o5
v1
n1.8
o44
o16
o5
v0
n2.0
o2
o2
n-0.3532
o5
v1
n1.2
o44
o0
o2
n-1.35
o5
o0
v0
n-0.892
n2.0
o2
n-5.2
o5
o0
v1
n-0.69
n2.0
o2
o2
n-0.914
v0
o5
v1
n1.14
o2
o2
o2
n0.952
o5
v0
n4.0
o5
v1
n2.25
o44
o16
o5
v0
n2.0
o2
o2
o2
n2.06
o5
v0
n2.0
o5
v1
n1.8
o44
o16
o5
v0
n2.0
o2
o2
o2
n0.57
o5
v0
n3.0
o5
v1
n3.0
o44
o16
o5
v0
n2.0
o2
o2
o2
n1.24374
v0
o5
v1
n1.26
o44
o2
n-1.0
v0
o2
o2
o2
n0.0265
v1
o5
v0
n7.0
o44
o2
n-1.0
v0
o2
o2
o2
n-0.1855
v1
o5
v0
n6.0
o44
o2
n-1.0
v0
o2
o2
o2
n-1.428
o5
v0
n2.0
o5
v1
n2.25
o44
o16
o5
v0
n2.0
o2
o2
o2
n-0.0661749
v1
o5
v0
n2.0
o44
o0
o2
n-1.23
o5
o0
v0
n-1.33
n2.0
o2
n-4.7
o5
o0
v1
n-0.67
n2.0
o2
o2
o2
n-0.57
v0
o5
v1
n3.0
o44
o16
o5
v0
n2.0
o2
o2
o2
n-4.89444
o5
v0
n2.0
o5
v1
n4.0
o44
o0
o2
n-413.0
o5
o0
v1
n-1.15
n2.0
o2
n-16.8
o5
o0
v0
n-0.86
n2.0
o2
o2
o2
n-0.62187
o5
v0
n2.0
o5
v1
n1.26
o44
o2
n-1.0
v0
o2
o2
o2
n-0.34800000000000003
o5
v0
n2.0
o5
v1
n5.3
o44
o0
o2
n-1.26
o5
o0
v0
n-0.785
n2.0
o2
n-3.9
o5
o0
v1
n-0.67
n2.0
o2
o2
o2
o2
n0.82
v0
v1
o0
o2
n-1.92
v0
n1.31136
o44
o0
o2
n-0.96
o5
o0
v0
n-0.683
n2.0
o2
n-2.7
o5
o0
v1
n-0.9
n2.0
o2
o2
o2
o2
n-0.0220583
v1
o5
v0
n3.0
o0
o2
n-2.46
v0
n3.2718000000000003
o44
o0
o2
n-1.23
o5
o0
v0
n-1.33
n2.0
o2
n-4.7
o5
o0
v1
n-0.67
n2.0
o2
o2
o2
o2
n-0.3532
v0
o5
v1
n1.2
o0
o2
n-2.7
v0
n2.4084000000000003
o44
o0
o2
n-1.35
o5
o0
v0
n-0.892
n2.0
o2
n-5.2
o5
o0
v1
n-0.69
n2.0
o2
o2
o2
o2
n-1.63148
o5
v0
n3.0
o5
v1
n4.0
o0
o2
n-33.6
v0
n28.896
o44
o0
o2
n-413.0
o5
o0
v1
n-1.15
n2.0
o2
n-16.8
o5
o0
v0
n-0.86
n2.0
o2
o2
o2
o2
n-0.116
o5
v0
n3.0
o5
v1
n5.3
o0
o2
n-2.52
v0
n1.9782000000000002
o44
o0
o2
n-1.26
o5
o0
v0
n-0.785
n2.0
o2
n-3.9
o5
o0
v1
n-0.67
n2.0
O7 0
o54
41
o2
n-0.914
o5
v1
n1.14
o2
o2
n0.49595999999999996
v1
o5
v0
n2.0
o2
o2
n1.0098
o5
v1
n0.744
v0
o2
o2
n1.24374
o5
v1
n1.26
o44
o2
n-1.0
v0
o2
o2
n-0.57
o5
v1
n3.0
o44
o16
o5
v0
n2.0
o2
o2
o2
n0.371
v1
o5
v0
n6.0
o44
o2
n-1.0
v0
o2
o2
o2
n6.18
o5
v1
n1.8
v0
o44
o16
o5
v0
n2.0
o2
o2
o2
n2.8499999999999996
o5
v1
n3.0
o5
v0
n2.0
o44
o16
o5
v0
n2.0
o2
o2
o2
n0.29232
o5
v1
n5.3
o5
v0
n3.0
o44
o0
o2
n-1.26
o5
o0
v0
n-0.785
n2.0
o2
n-3.9
o5
o0
v1
n-0.67
n2.0
o2
o2
o2
n6.664
o5
v1
n2.25
o5
v0
n3.0
o44
o16
o5
v0
n2.0
o2
o2
o2
n54.817728
o5
v1
n4.0
o5
v0
n3.0
o44
o0
o2
n-413.0
o5
o0
v1
n-1.15
n2.0
o2
n-16.8
o5
o0
v0
n-0.86
n2.0
o2
o2
o2
n0.62187
o5
v1
n1.26
o5
v0
n2.0
o44
o2
n-1.0
v0
o2
o2
o2
n0.82
v1
o0
o2
n-1.92
v0
n1.31136
o44
o0
o2
n-0.96
o5
o0
v0
n-0.683
n2.0
o2
n-2.7
o5
o0
v1
n-0.9
n2.0
o2
o2
o2
n0.054263418
v1
o5
v0
n3.0
o44
o0
o2
n-1.23
o5
o0
v0
n-1.33
n2.0
o2
n-4.7
o5
o0
v1
n-0.67
n2.0
o2
o2
o2
n0.9536400000000002
v0
o5
v1
n1.2
o44
o0
o2
n-1.35
o5
o0
v0
n-0.892
n2.0
o2
n-5.2
o5
o0
v1
n-0.69
n2.0
o2
o2
o2
n0.9536400000000002
o5
v1
n1.2
o0
v0
n-0.892
o44
o0
o2
n-1.35
o5
o0
v0
n-0.892
n2.0
o2
n-5.2
o5
o0
v1
n-0.69
n2.0
o2
o2
o2
n-1.904
o5
v1
n2.25
o5
v0
n5.0
o44
o16
o5
v0
n2.0
o2
o2
o2
n-2.856
o5
v1
n2.25
v0
o44
o16
o5
v0
n2.0
o2
o2
o2
n-1.5743999999999998
v1
v0
o44
o0
o2
n-0.96
o5
o0
v0
n-0.683
n2.0
o2
n-2.7
o5
o0
v1
n-0.9
n2.0
o2
o2
o2
n-1.5743999999999998
v1
o0
v0
n-0.683
o44
o0
o2
n-0.96
o5
o0
v0
n-0.683
n2.0
o2
n-2.7
o5
o0
v1
n-0.9
n2.0
o2
o2
o2
n-1.113
v1
o5
v0
n5.0
o44
o2
n-1.0
v0
o2
o2
o2
n-4.12
o5
v1
n1.8
o5
v0
n3.0
o44
o16
o5
v0
n2.0
o2
o2
o2
n-0.1323498
v1
v0
o44
o0
o2
n-1.23
o5
o0
v0
n-1.33
n2.0
o2
n-4.7
o5
o0
v1
n-0.67
n2.0
o2
o2
o2
n-1.14
o5
v1
n3.0
o5
v0
n4.0
o44
o16
o5
v0
n2.0
o2
o2
o2
n-9.78888
o5
v1
n4.0
v0
o44
o0
o2
n-413.0
o5
o0
v1
n-1.15
n2.0
o2
n-16.8
o5
o0
v0
n-0.86
n2.0
o2
o2
o2
n-1.24374
v0
o5
v1
n1.26
o44
o2
n-1.0
v0
o2
o2
o2
n-1.24374
o5
v1
n1.26
v0
o44
o2
n-1.0
v0
o2
o2
o2
n-0.6960000000000001
o5
v1
n5.3
v0
o44
o0
o2
n-1.26
o5
o0
v0
n-0.785
n2.0
o2
n-3.9
o5
o0
v1
n-0.67
n2.0
o2
o2
o2
n-0.3532
o5
v1
n1.2
o0
o2
n-2.7
v0
n2.4084000000000003
o44
o0
o2
n-1.35
o5
o0
v0
n-0.892
n2.0
o2
n-5.2
o5
o0
v1
n-0.69
n2.0
o2
o2
o2
n-0.0265
v1
o5
v0
n7.0
o44
o2
n-1.0
v0
o2
o2
o2
o2
n164.45318400000002
o5
v1
n4.0
o5
v0
n2.0
o0
v0
n-0.86
o44
o0
o2
n-413.0
o5
o0
v1
n-1.15
n2.0
o2
n-16.8
o5
o0
v0
n-0.86
n2.0
o2
o2
o2
o2
n0.162790254
v1
o5
v0
n2.0
o0
v0
n-1.33
o44
o0
o2
n-1.23
o5
o0
v0
n-1.33
n2.0
o2
n-4.7
o5
o0
v1
n-0.67
n2.0
o2
o2
o2
o2
n0.8769600000000001
o5
v1
n5.3
o5
v0
n2.0
o0
v0
n-0.785
o44
o0
o2
n-1.26
o5
o0
v0
n-0.785
n2.0
o2
n-3.9
o5
o0
v1
n-0.67
n2.0
o2
o2
o2
o2
n-0.0661749
v1
o5
v0
n2.0
o0
o2
n-2.46
v0
n3.2718000000000003
o44
o0
o2
n-1.23
o5
o0
v0
n-1.33
n2.0
o2
n-4.7
o5
o0
v1
n-0.67
n2.0
o2
o2
o2
o2
n-4.89444
o5
v1
n4.0
o5
v0
n2.0
o0
o2
n-33.6
v0
n28.896
o44
o0
o2
n-413.0
o5
o0
v1
n-1.15
n2.0
o2
n-16.8
o5
o0
v0
n-0.86
n2.0
o2
o2
o2
o2
n-0.34800000000000003
o5
v1
n5.3
o5
v0
n2.0
o0
o2
n-2.52
v0
n1.9782000000000002
o44
o0
o2
n-1.26
o5
o0
v0
n-0.785
n2.0
o2
n-3.9
o5
o0
v1
n-0.67
n2.0
o2
o2
o2
o2
o2
n0.29232
o5
v1
n5.3
o5
v0
n3.0
o0
v0
n-0.785
o0
o2
n-2.52
v0
n1.9782000000000002
o44
o0
o2
n-1.26
o5
o0
v0
n-0.785
n2.0
o2
n-3.9
o5
o0
v1
n-0.67
n2.0
o2
o2
o2
o2
o2
n54.817728
o5
v1
n4.0
o5
v0
n3.0
o0
v0
n-0.86
o0
o2
n-33.6
v0
n28.896
o44
o0
o2
n-413.0
o5
o0
v1
n-1.15
n2.0
o2
n-16.8
o5
o0
v0
n-0.86
n2.0
o2
o2
o2
o2
o2
n0.054263418
v1
o5
v0
n3.0
o0
v0
n-1.33
o0
o2
n-2.46
v0
n3.2718000000000003
o44
o0
o2
n-1.23
o5
o0
v0
n-1.33
n2.0
o2
n-4.7
o5
o0
v1
n-0.67
n2.0
o2
o2
o2
o2
o2
n0.9536400000000002
v0
o5
v1
n1.2
o0
v0
n-0.892
o0
o2
n-2.7
v0
n2.4084000000000003
o44
o0
o2
n-1.35
o5
o0
v0
n-0.892
n2.0
o2
n-5.2
o5
o0
v1
n-0.69
n2.0
o2
o2
o2
o2
o2
n-1.5743999999999998
v1
v0
o0
v0
n-0.683
o0
o2
n-1.92
v0
n1.31136
o44
o0
o2
n-0.96
o5
o0
v0
n-0.683
n2.0
o2
n-2.7
o5
o0
v1
n-0.9
n2.0
O8 0
o54
20
o2
n0.04133
o5
v0
n4.0
o2
o2
n0.55907
v0
o5
v1
n-0.63
o2
o2
n0.1252152
o5
v0
n3.0
o5
v1
n-0.256
o2
o2
n0.82
v0
o44
o0
o2
n-0.96
o5
o0
v0
n-0.683
n2.0
o2
n-2.7
o5
o0
v1
n-0.9
n2.0
o2
o2
n-2.231
v0
o5
v1
n-0.030000000000000027
o2
o2
n-0.52098
o5
v0
n2.0
o5
v1
n0.1399999999999999
o2
o2
n-0.0220583
o5
v0
n3.0
o44
o0
o2
n-1.23
o5
o0
v0
n-1.33
n2.0
o2
n-4.7
o5
o0
v1
n-0.67
n2.0
o2
o2
n-0.0265
o5
v0
n7.0
o44
o2
n-1.0
v0
o2
o2
o2
n0.7835562
o5
v0
n2.0
o5
v1
n0.26
o44
o2
n-1.0
v0
o2
o2
o2
n-0.42384
v0
o5
v1
n0.19999999999999996
o44
o0
o2
n-1.35
o5
o0
v0
n-0.892
n2.0
o2
n-5.2
o5
o0
v1
n-0.69
n2.0
o2
o2
o2
n-0.855
o5
v0
n2.0
o5
v1
n2.0
o44
o16
o5
v0
n2.0
o2
o2
o2
n-1.854
v0
o5
v1
n0.8
o44
o16
o5
v0
n2.0
o2
o2
o2
n-0.6148
o5
v0
n3.0
o5
v1
n4.3
o44
o0
o2
n-1.26
o5
o0
v0
n-0.785
n2.0
o2
n-3.9
o5
o0
v1
n-0.67
n2.0
o2
o2
o2
n-1.071
o5
v0
n3.0
o5
v1
n1.25
o44
o16
o5
v0
n2.0
o2
o2
o2
n-6.52592
o5
v0
n3.0
o5
v1
n3.0
o44
o0
o2
n-413.0
o5
o0
v1
n-1.15
n2.0
o2
n-16.8
o5
o0
v0
n-0.86
n2.0
o2
o2
o2
o2
n0.82
v0
v1
o0
o2
n-5.4
v1
n4.86
o44
o0
o2
n-0.96
o5
o0
v0
n-0.683
n2.0
o2
n-2.7
o5
o0
v1
n-0.9
n2.0
o2
o2
o2
o2
n-0.0220583
v1
o5
v0
n3.0
o0
o2
n-9.4
v1
n6.298000000000001
o44
o0
o2
n-1.23
o5
o0
v0
n-1.33
n2.0
o2
n-4.7
o5
o0
v1
n-0.67
n2.0
o2
o2
o2
o2
n-0.3532
v0
o5
v1
n1.2
o0
o2
n-10.4
v1
n7.175999999999999
o44
o0
o2
n-1.35
o5
o0
v0
n-0.892
n2.0
o2
n-5.2
o5
o0
v1
n-0.69
n2.0
o2
o2
o2
o2
n-1.63148
o5
v0
n3.0
o5
v1
n4.0
o0
o2
n-826.0
v1
n949.9
o44
o0
o2
n-413.0
o5
o0
v1
n-1.15
n2.0
o2
n-16.8
o5
o0
v0
n-0.86
n2.0
o2
o2
o2
o2
n-0.116
o5
v0
n3.0
o5
v1
n5.3
o0
o2
n-7.8
v1
n5.226
o44
o0
o2
n-1.26
o5
o0
v0
n-0.785
n2.0
o2
n-3.9
o5
o0
v1
n-0.67
n2.0
O9 0
o54
31
o2
o2
n0.06693000000000006
v0
o5
v1
n-1.03
o2
o2
n-0.07293719999999995
o5
v0
n2.0
o5
v1
n-0.8600000000000001
o2
o2
n-0.3522141
v0
o5
v1
n-1.63
o2
o2
n-0.032055091200000004
o5
v0
n3.0
o5
v1
n-1.256
o2
o2
o2
n0.20372461200000003
o5
v0
n2.0
o5
v1
n-0.74
o44
o2
n-1.0
v0
o2
o2
o2
n3.67328
v0
o5
v1
n1.2
o44
o0
o2
n-1.35
o5
o0
v0
n-0.892
n2.0
o2
n-5.2
o5
o0
v1
n-0.69
n2.0
o2
o2
o2
n1347.60248
o5
v0
n3.0
o5
v1
n4.0
o44
o0
o2
n-413.0
o5
o0
v1
n-1.15
n2.0
o2
n-16.8
o5
o0
v0
n-0.86
n2.0
o2
o2
o2
n0.9048
o5
v0
n3.0
o5
v1
n5.3
o44
o0
o2
n-1.26
o5
o0
v0
n-0.785
n2.0
o2
n-3.9
o5
o0
v1
n-0.67
n2.0
o2
o2
o2
n0.82
v0
o0
o2
n-5.4
v1
n4.86
o44
o0
o2
n-0.96
o5
o0
v0
n-0.683
n2.0
o2
n-2.7
o5
o0
v1
n-0.9
n2.0
o2
o2
o2
n0.20734802
v1
o5
v0
n3.0
o44
o0
o2
n-1.23
o5
o0
v0
n-1.33
n2.0
o2
n-4.7
o5
o0
v1
n-0.67
n2.0
o2
o2
o2
n0.20734802
o5
v0
n3.0
o0
v1
n-0.67
o44
o0
o2
n-1.23
o5
o0
v0
n-1.33
n2.0
o2
n-4.7
o5
o0
v1
n-0.67
n2.0
o2
o2
o2
n-1.4832
v0
o5
v1
n-0.19999999999999996
o44
o16
o5
v0
n2.0
o2
o2
o2
n-1.71
o5
v0
n2.0
v1
o44
o16
o5
v0
n2.0
o2
o2
o2
n-0.08476799999999998
v0
o5
v1
n-0.8
o44
o0
o2
n-1.35
o5
o0
v0
n-0.892
n2.0
o2
n-5.2
o5
o0
v1
n-0.69
n2.0
o2
o2
o2
n-4.428
v0
v1
o44
o0
o2
n-0.96
o5
o0
v0
n-0.683
n2.0
o2
n-2.7
o5
o0
v1
n-0.9
n2.0
o2
o2
o2
n-4.428
v0
o0
v1
n-0.9
o44
o0
o2
n-0.96
o5
o0
v0
n-0.683
n2.0
o2
n-2.7
o5
o0
v1
n-0.9
n2.0
o2
o2
o2
n-19.57776
o5
v0
n3.0
o5
v1
n2.0
o44
o0
o2
n-413.0
o5
o0
v1
n-1.15
n2.0
o2
n-16.8
o5
o0
v0
n-0.86
n2.0
o2
o2
o2
n-2.64364
o5
v0
n3.0
o5
v1
n3.3
o44
o0
o2
n-1.26
o5
o0
v0
n-0.785
n2.0
o2
n-3.9
o5
o0
v1
n-0.67
n2.0
o2
o2
o2
n-1.3387499999999999
o5
v0
n3.0
o5
v1
n0.25
o44
o16
o5
v0
n2.0
o2
o2
o2
n-0.0220583
o5
v0
n3.0
o0
o2
n-9.4
v1
n6.298000000000001
o44
o0
o2
n-1.23
o5
o0
v0
n-1.33
n2.0
o2
n-4.7
o5
o0
v1
n-0.67
n2.0
o2
o2
o2
o2
n5390.40992
o5
v0
n3.0
o5
v1
n3.0
o0
v1
n-1.15
o44
o0
o2
n-413.0
o5
o0
v1
n-1.15
n2.0
o2
n-16.8
o5
o0
v0
n-0.86
n2.0
o2
o2
o2
o2
n4.407936
v0
o5
v1
n0.19999999999999996
o0
v1
n-0.69
o44
o0
o2
n-1.35
o5
o0
v0
n-0.892
n2.0
o2
n-5.2
o5
o0
v1
n-0.69
n2.0
o2
o2
o2
o2
n4.79544
o5
v0
n3.0
o5
v1
n4.3
o0
v1
n-0.67
o44
o0
o2
n-1.26
o5
o0
v0
n-0.785
n2.0
o2
n-3.9
o5
o0
v1
n-0.67
n2.0
o2
o2
o2
o2
n-0.42384
v0
o5
v1
n0.19999999999999996
o0
o2
n-10.4
v1
n7.175999999999999
o44
o0
o2
n-1.35
o5
o0
v0
n-0.892
n2.0
o2
n-5.2
o5
o0
v1
n-0.69
n2.0
o2
o2
o2
o2
n-0.6148
o5
v0
n3.0
o5
v1
n4.3
o0
o2
n-7.8
v1
n5.226
o44
o0
o2
n-1.26
o5
o0
v0
n-0.785
n2.0
o2
n-3.9
o5
o0
v1
n-0.67
n2.0
o2
o2
o2
o2
n-6.52592
o5
v0
n3.0
o5
v1
n3.0
o0
o2
n-826.0
v1
n949.9
o44
o0
o2
n-413.0
o5
o0
v1
n-1.15
n2.0
o2
n-16.8
o5
o0
v0
n-0.86
n2.0
o2
o2
o2
o2
o2
n3.67328
v0
o5
v1
n1.2
o0
v1
n-0.69
o0
o2
n-10.4
v1
n7.175999999999999
o44
o0
o2
n-1.35
o5
o0
v0
n-0.892
n2.0
o2
n-5.2
o5
o0
v1
n-0.69
n2.0
o2
o2
o2
o2
o2
n1347.60248
o5
v0
n3.0
o5
v1
n4.0
o0
v1
n-1.15
o0
o2
n-826.0
v1
n949.9
o44
o0
o2
n-413.0
o5
o0
v1
n-1.15
n2.0
o2
n-16.8
o5
o0
v0
n-0.86
n2.0
o2
o2
o2
o2
o2
n0.9048
o5
v0
n3.0
o5
v1
n5.3
o0
v1
n-0.67
o0
o2
n-7.8
v1
n5.226
o44
o0
o2
n-1.26
o5
o0
v0
n-0.785
n2.0
o2
n-3.9
o5
o0
v1
n-0.67
n2.0
o2
o2
o2
o2
o2
n0.20734802
v1
o5
v0
n3.0
o0
v1
n-0.67
o0
o2
n-9.4
v1
n6.298000000000001
o44
o0
o2
n-1.23
o5
o0
v0
n-1.33
n2.0
o2
n-4.7
o5
o0
v1
n-0.67
n2.0
o2
o2
o2
o2
o2
n-4.428
v0
v1
o0
v1
n-0.9
o0
o2
n-5.4
v1
n4.86
o44
o0
o2
n-0.96
o5
o0
v0
n-0.683
n2.0
o2
n-2.7
o5
o0
v1
n-0.9
n2.0
O10 0
o54
35
o2
n0.55907
o5
v1
n-0.63
o2
n0.16532
o5
v0
n3.0
o2
n0.82
o44
o0
o2
n-0.96
o5
o0
v0
n-0.683
n2.0
o2
n-2.7
o5
o0
v1
n-0.9
n2.0
o2
n-2.231
o5
v1
n-0.030000000000000027
o2
o2
n0.3756456
o5
v1
n-0.256
o5
v0
n2.0
o2
o2
n0.0265
o5
v0
n7.0
o44
o2
n-1.0
v0
o2
o2
n-0.1855
o5
v0
n6.0
o44
o2
n-1.0
v0
o2
o2
n-0.42384
o5
v1
n0.19999999999999996
o44
o0
o2
n-1.35
o5
o0
v0
n-0.892
n2.0
o2
n-5.2
o5
o0
v1
n-0.69
n2.0
o2
o2
n-1.854
o5
v1
n0.8
o44
o16
o5
v0
n2.0
o2
o2
n-1.04196
v0
o5
v1
n0.1399999999999999
o2
o2
n-0.0661749
o5
v0
n2.0
o44
o0
o2
n-1.23
o5
o0
v0
n-1.33
n2.0
o2
n-4.7
o5
o0
v1
n-0.67
n2.0
o2
o2
o2
n1.5671124
v0
o5
v1
n0.26
o44
o2
n-1.0
v0
o2
o2
o2
n1.71
o5
v1
n2.0
o5
v0
n3.0
o44
o16
o5
v0
n2.0
o2
o2
o2
n3.67328
o5
v1
n1.2
o0
v1
n-0.69
o44
o0
o2
n-1.35
o5
o0
v0
n-0.892
n2.0
o2
n-5.2
o5
o0
v1
n-0.69
n2.0
o2
o2
o2
n3.708
o5
v1
n0.8
o5
v0
n2.0
o44
o16
o5
v0
n2.0
o2
o2
o2
n2.142
o5
v1
n1.25
o5
v0
n4.0
o44
o16
o5
v0
n2.0
o2
o2
o2
n0.82
v0
o0
o2
n-1.92
v0
n1.31136
o44
o0
o2
n-0.96
o5
o0
v0
n-0.683
n2.0
o2
n-2.7
o5
o0
v1
n-0.9
n2.0
o2
o2
o2
n-0.7835562
o5
v1
n0.26
o5
v0
n2.0
o44
o2
n-1.0
v0
o2
o2
o2
n-1.71
v0
o5
v1
n2.0
o44
o16
o5
v0
n2.0
o2
o2
o2
n-3.213
o5
v1
n1.25
o5
v0
n2.0
o44
o16
o5
v0
n2.0
o2
o2
o2
n-4.428
v1
o0
v1
n-0.9
o44
o0
o2
n-0.96
o5
o0
v0
n-0.683
n2.0
o2
n-2.7
o5
o0
v1
n-0.9
n2.0
o2
o2
o2
n-19.57776
o5
v1
n3.0
o5
v0
n2.0
o44
o0
o2
n-413.0
o5
o0
v1
n-1.15
n2.0
o2
n-16.8
o5
o0
v0
n-0.86
n2.0
o2
o2
o2
n-0.0220583
o5
v0
n3.0
o0
o2
n-2.46
v0
n3.2718000000000003
o44
o0
o2
n-1.23
o5
o0
v0
n-1.33
n2.0
o2
n-4.7
o5
o0
v1
n-0.67
n2.0
o2
o2
o2
n-1.8444
o5
v1
n4.3
o5
v0
n2.0
o44
o0
o2
n-1.26
o5
o0
v0
n-0.785
n2.0
o2
n-3.9
o5
o0
v1
n-0.67
n2.0
o2
o2
o2
o2
n4042.8074400000005
o5
v1
n4.0
o5
v0
n2.0
o0
v1
n-1.15
o44
o0
o2
n-413.0
o5
o0
v1
n-1.15
n2.0
o2
n-16.8
o5
o0
v0
n-0.86
n2.0
o2
o2
o2
o2
n2.7144000000000004
o5
v1
n5.3
o5
v0
n2.0
o0
v1
n-0.67
o44
o0
o2
n-1.26
o5
o0
v0
n-0.785
n2.0
o2
n-3.9
o5
o0
v1
n-0.67
n2.0
o2
o2
o2
o2
n0.62204406
v1
o5
v0
n2.0
o0
v1
n-0.67
o44
o0
o2
n-1.23
o5
o0
v0
n-1.33
n2.0
o2
n-4.7
o5
o0
v1
n-0.67
n2.0
o2
o2
o2
o2
n-0.42384
v0
o5
v1
n0.19999999999999996
o0
o2
n-2.7
v0
n2.4084000000000003
o44
o0
o2
n-1.35
o5
o0
v0
n-0.892
n2.0
o2
n-5.2
o5
o0
v1
n-0.69
n2.0
o2
o2
o2
o2
n-0.6148
o5
v1
n4.3
o5
v0
n3.0
o0
o2
n-2.52
v0
n1.9782000000000002
o44
o0
o2
n-1.26
o5
o0
v0
n-0.785
n2.0
o2
n-3.9
o5
o0
v1
n-0.67
n2.0
o2
o2
o2
o2
n-6.52592
o5
v1
n3.0
o5
v0
n3.0
o0
o2
n-33.6
v0
n28.896
o44
o0
o2
n-413.0
o5
o0
v1
n-1.15
n2.0
o2
n-16.8
o5
o0
v0
n-0.86
n2.0
o2
o2
o2
o2
o2
n3.67328
v0
o5
v1
n1.2
o0
v1
n-0.69
o0
o2
n-2.7
v0
n2.4084000000000003
o44
o0
o2
n-1.35
o5
o0
v0
n-0.892
n2.0
o2
n-5.2
o5
o0
v1
n-0.69
n2.0
o2
o2
o2
o2
o2
n1347.60248
o5
v1
n4.0
o5
v0
n3.0
o0
v1
n-1.15
o0
o2
n-33.6
v0
n28.896
o44
o0
o2
n-413.0
o5
o0
v1
n-1.15
n2.0
o2
n-16.8
o5
o0
v0
n-0.86
n2.0
o2
o2
o2
o2
o2
n0.9048
o5
v1
n5.3
o5
v0
n3.0
o0
v1
n-0.67
o0
o2
n-2.52
v0
n1.9782000000000002
o44
o0
o2
n-1.26
o5
o0
v0
n-0.785
n2.0
o2
n-3.9
o5
o0
v1
n-0.67
n2.0
o2
o2
o2
o2
o2
n0.20734802
v1
o5
v0
n3.0
o0
v1
n-0.67
o0
o2
n-2.46
v0
n3.2718000000000003
o44
o0
o2
n-1.23
o5
o0
v0
n-1.33
n2.0
o2
n-4.7
o5
o0
v1
n-0.67
n2.0
o2
o2
o2
o2
o2
n-4.428
v1
v0
o0
v1
n-0.9
o0
o2
n-1.92
v0
n1.31136
o44
o0
o2
n-0.96
o5
o0
v0
n-0.683
n2.0
o2
n-2.7
o5
o0
v1
n-0.9
n2.0
O11 0
o0
o54
6
o2
n7.345119166859648
o5
o0
o16
o3
n1
v1
n1
n0.331
o2
n-11.515617231318577
o5
o0
o16
o3
n1
v1
n1
n0.379
o2
n6.89480557431733
o5
o0
o16
o3
n1
v1
n1
n0.459
o2
n-1.9186452820369757
o5
o0
o16
o3
n1
v1
n1
n3.341
o2
n183.43884409350315
o5
o0
o16
o3
n1
v1
n1
n6.576
o2
n-184.35734585122438
o5
o0
o16
o3
n1
v1
n1
n6.669
n1.0
O12 0
o44
o2
v1
o54
6
o2
n-0.3089763166551767
o5
o0
o16
o3
n1
v1
n1
n0.148
o2
n-2.9925531954627664
o5
o0
o16
o3
n1
v1
n1
n0.482
o2
n-1.8199815337621044
o5
o0
o16
o3
n1
v1
n1
n0.891
o2
n-1.0253004294209247
o5
o0
o16
o3
n1
v1
n1
n2.774
o2
n-2.9173025831139583
o5
o0
o16
o3
n1
v1
n1
n4.26
o2
n-1.6688506440273063
o5
o0
o16
o3
n1
v1
n1
n6.784
O13 0
n0.0
x2
0 1.00000001
1 1.0
r
b
3
3
k1
0
G0 2
0 0
1 5.478795457582861
G1 1
0 0
G2 1
0 0
G3 1
1 0
G4 1
1 0
G5 2
0 0
1 0
G6 2
0 0
1 0
G7 2
0 0
1 0
G8 2
0 0
1 0
G9 2
0 0
1 0
G10 2
0 0
1 0
G11 1
1 0
G12 1
1 0
